# Objective value = 141
WA1n 0
WA1p 0
WA2n 0
WA2p 1
WB1n 0
WB1p 0
WB2n 0
WB2p 1
WC1n 1
WC1p 0
WD1n 1
WD1p 0
WD2n 1
WD2p 0
WE1n 0
WE1p 1
WE2n 0
WE2p 1
WF1n 0
WF1p 1
WF2n 0
WF2p 1
WG1n 5
WG1p 0
WG2n 1
WG2p 0
WH1n 7
WH1p 0
WI1n 7
WI1p 0
WJ1n 7
WJ1p 0
WK1n 7
WK1p 0
WL1n 0
WL1p 7
WM1n 0
WM1p 7
WN1n 47
WN1p 0
WN2n 1
WN2p 0
WT1n 29
WT1p 0
5 7
a 0
b 1
c 0
d 1
e 0
f 0
g 0
h 1
i 1
j 1
k 1
l 0
m 0
n 0
o 0
p 0
q 0
r 1
s 1
t 0
u 0
v 0
